p cnf 1440 2218
2 -17 -22 101 0
-22 -26 -101 102 0
-26 39 -102 103 0
39 44 -103 104 0
44 -57 -104 105 0
-57 61 -105 106 0
61 -83 87 -106 0
-59 -81 -91 107 0
-59 -81 -91 -107 0
10 -54 -77 -92 0
-36 -49 71 108 0
-36 -49 71 -108 0
12 -13 -27 109 0
-27 37 -109 110 0
37 -68 -110 111 0
-68 -70 -111 112 0
-70 -93 -112 113 0
-93 95 -96 -113 0
13 22 -34 114 0
-34 -38 74 -114 0
7 -10 -55 86 0
8 19 22 51 0
-5 -10 97 115 0
-5 -10 97 -115 0
76 -90 94 116 0
76 -90 94 -116 0
15 16 -32 117 0
-32 36 -117 118 0
36 38 -118 119 0
38 59 -119 120 0
59 -66 -120 121 0
-66 -75 -121 122 0
-75 -92 -97 -122 0
7 44 59 123 0
7 44 59 -123 0
-25 -50 61 124 0
61 62 -124 125 0
62 -77 -80 -125 0
39 42 64 126 0
64 -79 -88 -126 0
39 -60 72 -73 0
25 -31 -43 127 0
-43 -64 -127 128 0
-64 66 -128 129 0
66 67 -129 130 0
67 -69 -130 131 0
-69 71 -131 132 0
71 72 -132 133 0
72 -74 -79 -133 0
-17 38 -59 134 0
-17 38 -59 -134 0
-2 10 11 135 0
11 30 -135 136 0
30 45 -136 137 0
45 -68 -137 138 0
-68 -77 -138 139 0
-77 89 100 -139 0
16 -52 140 141 0
16 -52 140 -141 0
16 -52 -140 141 0
16 -52 -140 -141 0
17 -45 63 -81 0
1 38 55 142 0
55 -95 100 -142 0
20 34 -49 143 0
-49 -65 -73 -143 0
49 -53 -92 98 0
-14 -21 144 145 0
-14 -21 144 -145 0
-14 -21 -144 145 0
-14 -21 -144 -145 0
39 53 -64 75 0
9 41 -87 -92 0
22 29 38 146 0
38 40 -146 147 0
40 45 -147 148 0
45 56 -148 149 0
56 -70 -149 150 0
-70 -73 83 -150 0
4 -14 -41 151 0
-41 49 58 -151 0
3 -20 25 152 0
25 -45 -152 153 0
-45 -76 -153 154 0
-76 -85 -154 155 0
-85 96 97 -155 0
3 7 -36 156 0
-36 -68 -156 157 0
-68 87 -92 -157 0
8 -20 45 -62 0
10 43 -76 -89 0
12 -18 21 158 0
21 39 -158 159 0
39 -41 -91 -159 0
26 88 98 160 0
26 88 98 -160 0
-39 -77 97 161 0
-39 -77 97 -161 0
59 60 -65 162 0
-65 -79 -162 163 0
-79 87 -89 -163 0
1 43 71 164 0
1 43 71 -164 0
3 8 -21 165 0
-21 25 -165 166 0
25 -47 -166 167 0
-47 51 -167 168 0
51 -83 94 -168 0
-43 66 -81 169 0
-81 -86 -90 -169 0
-7 -44 68 -75 0
5 41 -44 170 0
-44 51 -170 171 0
51 86 -96 -171 0
-2 85 87 172 0
-2 85 87 -172 0
10 13 -40 173 0
-40 46 71 -173 0
-9 60 174 175 0
-9 60 174 -175 0
-9 60 -174 175 0
-9 60 -174 -175 0
15 -96 99 176 0
15 -96 99 -176 0
3 18 25 177 0
25 -30 -177 178 0
-30 83 84 -178 0
-42 82 88 179 0
-42 82 88 -179 0
-41 44 -65 -82 0
-2 -6 -55 180 0
-55 74 -180 181 0
74 79 -181 182 0
79 88 -100 -182 0
5 10 -25 183 0
-25 -51 -183 184 0
-51 62 -184 185 0
62 64 -185 186 0
64 -85 -186 187 0
-85 -87 96 -187 0
-25 -54 188 189 0
-25 -54 188 -189 0
-25 -54 -188 189 0
-25 -54 -188 -189 0
35 63 90 190 0
35 63 90 -190 0
-2 -12 -35 191 0
-35 42 -191 192 0
42 -48 79 -192 0
36 -40 193 194 0
36 -40 193 -194 0
36 -40 -193 194 0
36 -40 -193 -194 0
1 2 -37 195 0
-37 68 -195 196 0
68 71 -196 197 0
71 -78 84 -197 0
9 10 -17 198 0
-17 -22 -198 199 0
-22 -28 87 -199 0
3 -4 -41 200 0
-41 50 -200 201 0
50 -53 -201 202 0
-53 -77 -81 -202 0
-18 -24 -37 203 0
-37 64 -203 204 0
64 66 -204 205 0
66 83 -96 -205 0
3 10 -11 206 0
-11 49 -206 207 0
49 -59 -207 208 0
-59 75 -86 -208 0
-4 -19 -23 209 0
-23 -28 -58 -209 0
-21 -35 -39 210 0
-39 -43 -210 211 0
-43 53 -211 212 0
53 -72 -212 213 0
-72 -92 97 -213 0
6 13 -24 214 0
-24 -53 -214 215 0
-53 55 95 -215 0
-23 -26 39 216 0
-23 -26 39 -216 0
35 -40 47 217 0
47 48 -217 218 0
48 83 -96 -218 0
-2 22 24 219 0
24 37 -219 220 0
37 38 -220 221 0
38 54 -221 222 0
54 58 -222 223 0
58 -64 -88 -223 0
17 30 33 224 0
33 35 -224 225 0
35 -49 -225 226 0
-49 -66 92 -226 0
-6 -29 -35 227 0
-6 -29 -35 -227 0
18 19 -25 228 0
-25 46 -65 -228 0
15 41 -54 229 0
-54 -64 -75 -229 0
6 28 34 77 0
2 -43 -50 230 0
-50 77 -98 -230 0
34 -47 -70 -89 0
-8 32 33 -44 0
6 -11 18 231 0
18 45 -231 232 0
45 -46 -232 233 0
-46 -57 -233 234 0
-57 -72 -234 235 0
-72 -75 -96 -235 0
-34 -39 45 236 0
45 46 74 -236 0
54 -83 86 237 0
86 -95 -98 -237 0
-43 48 77 238 0
77 -92 96 -238 0
30 -52 61 239 0
61 -62 -65 -239 0
-67 77 240 241 0
-67 77 240 -241 0
-67 77 -240 241 0
-67 77 -240 -241 0
-1 18 19 242 0
19 30 -242 243 0
30 38 -243 244 0
38 -46 -244 245 0
-46 -53 -92 -245 0
-14 18 -26 246 0
-26 29 -246 247 0
29 -30 -247 248 0
-30 64 -248 249 0
64 76 100 -249 0
-30 46 64 -70 0
49 -71 -75 -87 0
11 -24 41 65 0
-7 -16 48 250 0
-7 -16 48 -250 0
-20 -22 28 76 0
-17 -23 58 251 0
-17 -23 58 -251 0
5 6 -9 252 0
-9 -19 -252 253 0
-19 34 -253 254 0
34 -45 -254 255 0
-45 84 -255 256 0
84 85 -94 -256 0
54 78 95 257 0
54 78 95 -257 0
8 48 -87 258 0
-87 90 -258 259 0
90 -96 99 -259 0
-5 14 -21 260 0
-21 45 -260 261 0
45 54 -92 -261 0
3 9 -16 262 0
-16 -19 -262 263 0
-19 40 -263 264 0
40 -48 -264 265 0
-48 -65 83 -265 0
-1 4 -7 266 0
-7 -37 -266 267 0
-37 74 -267 268 0
74 -78 -100 -268 0
-12 -52 55 269 0
55 -67 -269 270 0
-67 80 -85 -270 0
39 51 -73 271 0
-73 -82 -271 272 0
-82 93 -94 -272 0
4 31 -59 273 0
-59 61 100 -273 0
2 -39 -68 -94 0
-9 -87 274 275 0
-9 -87 274 -275 0
-9 -87 -274 275 0
-9 -87 -274 -275 0
6 -20 -32 276 0
-32 61 -67 -276 0
-14 20 27 277 0
27 54 -277 278 0
54 -58 -278 279 0
-58 -77 -86 -279 0
-54 62 -100 280 0
-54 62 -100 -280 0
-48 61 86 281 0
-48 61 86 -281 0
15 30 -36 282 0
-36 -46 53 -282 0
-1 25 61 283 0
61 71 -99 -283 0
-2 -7 78 -79 0
-40 -91 284 285 0
-40 -91 284 -285 0
-40 -91 -284 285 0
-40 -91 -284 -285 0
-9 -85 286 287 0
-9 -85 286 -287 0
-9 -85 -286 287 0
-9 -85 -286 -287 0
11 29 81 -94 0
-5 -11 34 288 0
34 39 -288 289 0
39 55 -289 290 0
55 57 -290 291 0
57 -65 -291 292 0
-65 -83 -292 293 0
-83 86 -96 -293 0
36 41 56 -93 0
-10 96 294 295 0
-10 96 294 -295 0
-10 96 -294 295 0
-10 96 -294 -295 0
9 54 -74 296 0
-74 88 -90 -296 0
96 -97 297 298 0
96 -97 297 -298 0
96 -97 -297 298 0
96 -97 -297 -298 0
-2 5 7 -28 0
18 29 -31 299 0
-31 -35 -299 300 0
-35 62 -300 301 0
62 78 80 -301 0
-2 6 -23 302 0
-23 36 -302 303 0
36 85 -90 -303 0
-28 -63 304 305 0
-28 -63 304 -305 0
-28 -63 -304 305 0
-28 -63 -304 -305 0
-48 -60 80 -90 0
43 -79 -88 94 0
11 -31 -40 306 0
-40 -47 -306 307 0
-47 51 -307 308 0
51 -64 -308 309 0
-64 88 90 -309 0
-2 -13 -30 310 0
-30 33 -310 311 0
33 -48 98 -311 0
-23 -73 312 313 0
-23 -73 312 -313 0
-23 -73 -312 313 0
-23 -73 -312 -313 0
-24 44 -49 314 0
-49 52 -91 -314 0
6 -16 20 315 0
20 23 -315 316 0
23 -25 -316 317 0
-25 -34 -317 318 0
-34 -60 -318 319 0
-60 -71 82 -319 0
9 14 21 320 0
21 -70 -320 321 0
-70 75 -88 -321 0
15 53 322 323 0
15 53 322 -323 0
15 53 -322 323 0
15 53 -322 -323 0
-18 28 46 324 0
46 53 54 -324 0
5 8 15 325 0
15 -48 -325 326 0
-48 51 -326 327 0
51 -64 -81 -327 0
-2 -4 -43 97 0
-5 -10 13 328 0
13 27 -328 329 0
27 -38 -329 330 0
-38 60 -330 331 0
60 79 -85 -331 0
5 -21 -80 332 0
5 -21 -80 -332 0
-12 -38 53 333 0
53 -78 -333 334 0
-78 96 99 -334 0
3 -5 38 335 0
38 49 -83 -335 0
12 13 54 -68 0
8 20 42 336 0
42 51 91 -336 0
7 -10 52 93 0
-36 -40 337 338 0
-36 -40 337 -338 0
-36 -40 -337 338 0
-36 -40 -337 -338 0
44 75 -92 339 0
44 75 -92 -339 0
-26 48 -71 340 0
-71 -75 -87 -340 0
13 16 19 341 0
19 -22 -341 342 0
-22 -66 -342 343 0
-66 68 -343 344 0
68 -69 -344 345 0
-69 79 -345 346 0
79 -83 -346 347 0
-83 -86 90 -347 0
28 -39 -50 89 0
29 47 -52 348 0
29 47 -52 -348 0
-17 -56 61 349 0
61 65 -349 350 0
65 -77 -350 351 0
-77 79 83 -351 0
-1 -20 37 352 0
37 -62 -352 353 0
-62 84 -353 354 0
84 88 100 -354 0
30 40 -49 355 0
30 40 -49 -355 0
26 30 -33 -81 0
30 -45 56 356 0
56 62 -356 357 0
62 65 -357 358 0
65 67 -358 359 0
67 -81 -97 -359 0
-4 -9 -16 360 0
-16 -35 -360 361 0
-35 -59 -361 362 0
-59 -64 -77 -362 0
41 46 -49 -62 0
30 -32 -35 363 0
-35 -56 -79 -363 0
11 -21 68 364 0
11 -21 68 -364 0
15 23 87 365 0
15 23 87 -365 0
61 62 -77 366 0
61 62 -77 -366 0
29 -38 59 75 0
20 -32 36 367 0
36 38 -367 368 0
38 -41 49 -368 0
30 36 -73 369 0
30 36 -73 -369 0
-21 -95 370 371 0
-21 -95 370 -371 0
-21 -95 -370 371 0
-21 -95 -370 -371 0
-9 20 21 372 0
21 -62 -372 373 0
-62 -66 -373 374 0
-66 -70 97 -374 0
-21 34 -99 375 0
-21 34 -99 -375 0
17 51 -56 376 0
-56 -73 -376 377 0
-73 80 -377 378 0
80 85 -378 379 0
85 -90 100 -379 0
37 -39 -44 380 0
-44 48 -380 381 0
48 54 -381 382 0
54 65 74 -382 0
8 -26 -39 383 0
-39 43 -383 384 0
43 55 -384 385 0
55 -58 -385 386 0
-58 64 -386 387 0
64 -70 90 -387 0
-15 91 388 389 0
-15 91 388 -389 0
-15 91 -388 389 0
-15 91 -388 -389 0
-2 -22 -76 390 0
-76 -96 -99 -390 0
-3 -6 9 391 0
9 -17 -391 392 0
-17 -19 -392 393 0
-19 -63 -93 -393 0
13 -36 -40 394 0
-40 81 -394 395 0
81 92 -93 -395 0
-29 42 -76 91 0
-20 -22 46 396 0
46 74 -396 397 0
74 -84 -397 398 0
-84 -92 -97 -398 0
-31 -34 -59 72 0
35 -75 79 399 0
35 -75 79 -399 0
-23 48 71 76 0
29 -83 400 401 0
29 -83 400 -401 0
29 -83 -400 401 0
29 -83 -400 -401 0
29 -43 -58 63 0
53 95 402 403 0
53 95 402 -403 0
53 95 -402 403 0
53 95 -402 -403 0
-18 -30 47 404 0
-18 -30 47 -404 0
9 47 -53 405 0
-53 75 -405 406 0
75 76 -88 -406 0
-17 19 -39 407 0
-39 43 -407 408 0
43 -58 -408 409 0
-58 72 -409 410 0
72 75 77 -410 0
-41 61 81 411 0
81 84 85 -411 0
-15 35 -49 71 0
-26 58 69 412 0
-26 58 69 -412 0
-42 -74 77 413 0
-42 -74 77 -413 0
5 -14 17 414 0
17 37 -414 415 0
37 38 90 -415 0
-11 47 66 416 0
66 68 70 -416 0
64 69 417 418 0
64 69 417 -418 0
64 69 -417 418 0
64 69 -417 -418 0
-2 -14 -42 419 0
-42 -55 -65 -419 0
25 36 93 420 0
25 36 93 -420 0
-24 30 -66 421 0
-24 30 -66 -421 0
20 39 40 422 0
40 -75 -422 423 0
-75 84 94 -423 0
-16 27 -32 424 0
-32 -51 -424 425 0
-51 53 -425 426 0
53 58 -64 -426 0
61 -63 -96 427 0
61 -63 -96 -427 0
43 45 -60 428 0
-60 62 98 -428 0
-1 -68 -90 -100 0
19 -63 -86 429 0
19 -63 -86 -429 0
-45 -58 80 430 0
-45 -58 80 -430 0
-2 4 -5 431 0
-2 4 -5 -431 0
21 -22 -36 432 0
-36 46 -432 433 0
46 -77 -79 -433 0
22 31 -43 434 0
-43 -47 83 -434 0
16 -19 -64 95 0
6 17 28 435 0
28 31 60 -435 0
3 -14 -19 436 0
3 -14 -19 -436 0
-1 -6 85 -99 0
24 25 -41 437 0
-41 45 -437 438 0
45 47 -438 439 0
47 68 -439 440 0
68 -75 -84 -440 0
16 53 68 441 0
16 53 68 -441 0
-34 -59 70 442 0
70 71 -442 443 0
71 -86 -89 -443 0
48 51 73 444 0
73 -88 -97 -444 0
48 -69 81 -82 0
34 -40 -52 445 0
-52 -73 -445 446 0
-73 75 -446 447 0
75 76 -447 448 0
76 -78 -448 449 0
-78 80 -449 450 0
80 81 -450 451 0
81 -83 -88 -451 0
-26 47 -68 452 0
-26 47 -68 -452 0
9 -27 453 454 0
9 -27 453 -454 0
9 -27 -453 454 0
9 -27 -453 -454 0
-11 19 20 455 0
20 39 -455 456 0
39 54 -456 457 0
54 -77 -457 458 0
-77 -86 98 -458 0
25 -61 459 460 0
25 -61 459 -460 0
25 -61 -459 460 0
25 -61 -459 -460 0
-4 9 26 461 0
26 -54 -461 462 0
-54 72 -90 -462 0
10 47 64 463 0
10 47 64 -463 0
-1 7 29 464 0
29 43 -464 465 0
43 -58 -465 466 0
-58 -74 -82 -466 0
58 -62 467 468 0
58 -62 467 -468 0
58 -62 -467 468 0
58 -62 -467 -468 0
-23 -30 469 470 0
-23 -30 469 -470 0
-23 -30 -469 470 0
-23 -30 -469 -470 0
-1 48 62 471 0
62 -73 84 -471 0
18 50 -96 472 0
18 50 -96 -472 0
31 38 47 473 0
47 49 -473 474 0
49 54 -474 475 0
54 65 -475 476 0
65 -79 -476 477 0
-79 -82 92 -477 0
5 6 13 478 0
13 -23 -478 479 0
-23 -50 -479 480 0
-50 58 67 -480 0
-1 12 -29 481 0
-29 34 -481 482 0
34 -54 -482 483 0
-54 -85 -94 -483 0
12 16 -45 484 0
-45 -77 96 -484 0
17 -29 54 -71 0
19 52 -85 -98 0
7 21 -27 485 0
-27 30 -485 486 0
30 48 -486 487 0
48 -50 -100 -487 0
6 35 97 488 0
6 35 97 -488 0
-48 -86 489 490 0
-48 -86 489 -490 0
-48 -86 -489 490 0
-48 -86 -489 -490 0
68 69 -74 491 0
-74 -88 -491 492 0
-88 96 -98 -492 0
10 52 80 493 0
10 52 80 -493 0
12 17 -30 494 0
-30 34 -494 495 0
34 -56 -495 496 0
-56 60 -92 -496 0
-52 75 -90 497 0
-90 -95 -99 -497 0
-5 -16 -53 498 0
-53 77 -84 -498 0
14 50 -53 499 0
-53 60 95 -499 0
-11 94 96 500 0
-11 94 96 -500 0
19 22 -49 501 0
-49 55 80 -501 0
-5 8 -18 69 0
12 27 34 502 0
34 -39 -502 503 0
-39 92 93 -503 0
-51 91 97 504 0
-51 91 97 -504 0
-9 -50 53 505 0
53 -74 -91 -505 0
5 -11 -15 506 0
-15 -64 -506 507 0
-64 83 -507 508 0
83 88 97 -508 0
14 19 -34 509 0
-34 -60 -509 510 0
-60 71 -510 511 0
71 73 -511 512 0
73 -94 -96 -512 0
-34 -63 513 514 0
-34 -63 513 -514 0
-34 -63 -513 514 0
-34 -63 -513 -514 0
44 72 99 515 0
44 72 99 -515 0
-11 -21 -44 516 0
-44 51 -516 517 0
51 -57 88 -517 0
45 -49 518 519 0
45 -49 518 -519 0
45 -49 -518 519 0
45 -49 -518 -519 0
10 11 -46 520 0
-46 77 -520 521 0
77 80 -521 522 0
80 -87 93 -522 0
18 19 -26 523 0
-26 -31 -523 524 0
-31 -37 96 -524 0
-5 12 -13 525 0
-13 -50 -525 526 0
-50 59 -526 527 0
59 -62 -527 528 0
-62 -86 -90 -528 0
-27 -33 -46 529 0
-46 73 -529 530 0
73 75 92 -530 0
12 19 -20 531 0
-20 58 -531 532 0
58 -68 -532 533 0
-68 84 -95 -533 0
-1 6 -13 534 0
-13 -28 -534 535 0
-28 -32 -535 536 0
-32 -37 -67 -536 0
4 -30 -44 537 0
-44 -48 -537 538 0
-48 -52 -538 539 0
-52 62 -81 -539 0
15 22 -33 540 0
-33 -62 64 -540 0
-5 -32 -35 48 0
44 -49 56 541 0
56 57 92 -541 0
1 -11 31 542 0
31 33 -542 543 0
33 46 -543 544 0
46 47 -544 545 0
47 63 -545 546 0
63 67 -546 547 0
67 -73 -97 -547 0
26 39 42 548 0
42 44 -548 549 0
44 -58 -75 -549 0
-15 -38 -44 550 0
-15 -38 -44 -550 0
27 28 -34 551 0
-34 55 -74 -551 0
24 50 -63 552 0
-63 -73 -84 -552 0
-7 15 37 553 0
37 43 86 -553 0
11 -52 -59 86 0
43 -56 -79 -98 0
-5 -17 41 554 0
41 42 -53 -554 0
15 -20 27 555 0
27 54 -555 556 0
54 -55 -556 557 0
-55 -66 -557 558 0
-66 -81 -84 -558 0
-4 -7 -43 559 0
-43 -48 -559 560 0
-48 54 -560 561 0
54 55 83 -561 0
-1 5 63 562 0
63 -92 95 -562 0
-52 57 86 563 0
-52 57 86 -563 0
39 -61 70 564 0
70 -71 -74 -564 0
-1 -76 86 565 0
-1 -76 86 -565 0
9 -10 27 566 0
27 28 -566 567 0
28 39 -567 568 0
39 47 -568 569 0
47 -55 -62 -569 0
-23 27 -35 570 0
-35 38 -570 571 0
38 -39 -571 572 0
-39 73 85 -572 0
-39 55 73 -79 0
58 -80 -84 -96 0
20 -33 50 74 0
-16 -25 57 573 0
-16 -25 57 -573 0
-29 -31 37 85 0
-3 -26 -32 67 0
4 14 15 574 0
15 -18 -574 575 0
-18 -28 -575 576 0
-28 43 -576 577 0
43 -54 -577 578 0
-54 93 94 -578 0
-5 8 63 87 0
-1 17 57 579 0
57 -96 99 -579 0
7 -14 23 580 0
23 -30 -580 581 0
-30 54 63 -581 0
-9 12 18 582 0
18 -25 -582 583 0
-25 -28 -583 584 0
-28 49 -584 585 0
49 -57 -585 586 0
-57 -74 92 -586 0
-10 13 -16 587 0
-16 -46 -587 588 0
-46 83 -87 -588 0
2 -3 -21 589 0
-21 -61 -589 590 0
-61 64 -590 591 0
64 -76 -591 592 0
-76 89 -94 -592 0
9 48 60 593 0
60 -82 -91 -593 0
13 40 -68 70 0
-3 58 594 595 0
-3 58 594 -595 0
-3 58 -594 595 0
-3 58 -594 -595 0
11 -48 -77 596 0
11 -48 -77 -596 0
-18 -96 597 598 0
-18 -96 597 -598 0
-18 -96 -597 598 0
-18 -96 -597 -598 0
15 -29 -41 599 0
-41 70 -76 -599 0
-9 -23 29 600 0
29 36 -600 601 0
36 63 -601 602 0
63 -67 -602 603 0
-67 -86 -95 -603 0
-63 71 604 605 0
-63 71 604 -605 0
-63 71 -604 605 0
-63 71 -604 -605 0
-57 70 95 606 0
-57 70 95 -606 0
-8 24 39 607 0
39 -45 -607 608 0
-45 -55 62 -608 0
-10 34 70 80 0
-11 -16 87 -88 0
-49 -100 609 610 0
-49 -100 609 -610 0
-49 -100 -609 610 0
-49 -100 -609 -610 0
-3 -18 -94 611 0
-3 -18 -94 -611 0
-5 20 38 90 0
-2 -14 -20 612 0
-20 43 -612 613 0
43 48 -613 614 0
48 64 -614 615 0
64 66 -615 616 0
66 -74 -616 617 0
-74 -92 95 -617 0
5 45 50 65 0
5 -6 18 618 0
18 63 -618 619 0
63 -83 -619 620 0
-83 97 -99 -620 0
-11 14 16 -37 0
27 38 -40 621 0
-40 -44 -621 622 0
-44 71 -622 623 0
71 87 89 -623 0
-11 15 -32 624 0
-32 45 -624 625 0
45 94 -99 -625 0
-37 -72 626 627 0
-37 -72 626 -627 0
-37 -72 -626 627 0
-37 -72 -626 -627 0
3 -57 -69 628 0
-69 89 -99 -628 0
52 -88 -97 629 0
52 -88 -97 -629 0
7 20 -40 630 0
-40 -49 -630 631 0
-49 -56 -631 632 0
-56 60 -632 633 0
60 -73 -633 634 0
-73 97 99 -634 0
-11 -22 -39 635 0
-39 42 -57 -635 0
-32 -82 636 637 0
-32 -82 636 -637 0
-32 -82 -636 637 0
-32 -82 -636 -637 0
-33 53 -58 638 0
-58 61 -100 -638 0
15 -25 29 639 0
29 32 -639 640 0
32 -34 -640 641 0
-34 -43 -641 642 0
-43 -69 -642 643 0
-69 -80 91 -643 0
18 23 30 644 0
30 -79 -644 645 0
-79 84 -97 -645 0
24 62 646 647 0
24 62 646 -647 0
24 62 -646 647 0
24 62 -646 -647 0
-27 37 55 648 0
55 62 63 -648 0
6 14 17 649 0
17 24 -649 650 0
24 -57 -650 651 0
-57 60 -651 652 0
60 -73 -90 -652 0
-11 -13 -52 653 0
-11 -13 -52 -653 0
-14 -19 22 654 0
22 36 -654 655 0
36 -47 -655 656 0
-47 69 -656 657 0
69 88 -94 -657 0
5 8 14 658 0
14 -30 -89 -658 0
-21 -47 62 -87 0
12 -14 47 659 0
47 58 -92 -659 0
21 22 63 -77 0
2 17 29 660 0
29 51 -660 661 0
51 60 100 -661 0
16 -19 61 662 0
16 -19 61 -662 0
-1 -45 -49 663 0
-1 -45 -49 -663 0
53 84 664 665 0
53 84 664 -665 0
53 84 -664 665 0
53 84 -664 -665 0
-35 57 -80 666 0
-80 -84 -96 -666 0
22 25 28 667 0
28 -31 -667 668 0
-31 -75 -668 669 0
-75 77 -669 670 0
77 -78 -670 671 0
-78 88 -671 672 0
88 -92 -672 673 0
-92 -95 99 -673 0
37 -48 -59 98 0
38 56 -61 674 0
38 56 -61 -674 0
9 -26 -65 675 0
-65 70 -675 676 0
70 74 -676 677 0
74 -86 -677 678 0
-86 88 92 -678 0
-10 -29 46 679 0
46 -71 -679 680 0
-71 93 97 -680 0
39 49 -58 681 0
39 49 -58 -681 0
35 39 -42 -90 0
-6 74 682 683 0
-6 74 682 -683 0
-6 74 -682 683 0
-6 74 -682 -683 0
39 -54 65 684 0
65 71 -684 685 0
71 74 -685 686 0
74 76 -90 -686 0
-13 -18 -25 687 0
-25 -44 -687 688 0
-44 -68 -688 689 0
-68 -73 -86 -689 0
50 55 -58 -71 0
39 -41 -44 690 0
-44 -65 -88 -690 0
20 -30 77 691 0
20 -30 77 -691 0
24 32 96 692 0
24 32 96 -692 0
70 71 -86 693 0
70 71 -86 -693 0
38 -47 68 84 0
29 -41 45 694 0
45 47 -694 695 0
47 -50 58 -695 0
-4 39 45 -82 0
6 -30 696 697 0
6 -30 696 -697 0
6 -30 -696 697 0
6 -30 -696 -697 0
-8 -18 29 698 0
29 30 -698 699 0
30 -71 -699 700 0
-71 -75 -79 -700 0
9 -30 43 701 0
9 -30 43 -701 0
26 60 -65 702 0
-65 -82 -702 703 0
-82 89 -703 704 0
89 94 -99 -704 0
46 -48 -53 705 0
-53 57 -705 706 0
57 63 -706 707 0
63 74 83 -707 0
17 -35 -48 708 0
-48 52 -708 709 0
52 64 -709 710 0
64 -67 -710 711 0
-67 73 -711 712 0
73 -79 99 -712 0
-5 -8 -24 100 0
-2 -11 -31 -85 0
1 -2 -12 713 0
-12 -15 -713 714 0
-15 18 -714 715 0
18 -26 -715 716 0
-26 -28 -72 -716 0
22 -45 -49 90 0
-1 -6 -38 717 0
-38 51 -717 718 0
51 -85 100 -718 0
-29 -31 55 719 0
55 83 -93 -719 0
-40 -43 -68 81 0
44 -84 88 720 0
44 -84 88 -720 0
-32 57 80 85 0
38 -92 721 722 0
38 -92 721 -722 0
38 -92 -721 722 0
38 -92 -721 -722 0
4 38 -52 723 0
-52 -67 72 -723 0
-27 -39 56 724 0
-27 -39 56 -724 0
18 56 -62 725 0
-62 84 -725 726 0
84 85 -97 -726 0
-26 28 -48 727 0
-48 52 -727 728 0
52 -67 -728 729 0
-67 81 -729 730 0
81 84 86 -730 0
-50 70 90 731 0
90 93 94 -731 0
-24 44 -58 80 0
-35 67 78 732 0
-35 67 78 -732 0
-51 -83 86 733 0
-51 -83 86 -733 0
14 -23 26 734 0
26 46 -734 735 0
46 47 99 -735 0
-20 56 75 736 0
75 77 79 -736 0
73 78 737 738 0
73 78 737 -738 0
73 78 -737 738 0
73 78 -737 -738 0
2 -11 -23 739 0
-23 -51 -739 740 0
-51 -64 -74 -740 0
34 45 741 742 0
34 45 741 -742 0
34 45 -741 742 0
34 45 -741 -742 0
3 -33 39 -75 0
29 48 49 743 0
49 -84 93 -743 0
-5 -25 36 744 0
36 -41 -744 745 0
-41 -60 -745 746 0
-60 62 -746 747 0
62 67 -73 -747 0
7 70 -72 748 0
7 70 -72 -748 0
-9 52 54 749 0
54 -69 71 -749 0
-10 -77 -99 750 0
-10 -77 -99 -750 0
28 -72 -95 751 0
28 -72 -95 -751 0
-54 -67 89 752 0
-54 -67 89 -752 0
-11 13 -14 753 0
-11 13 -14 -753 0
30 -31 -45 754 0
-45 55 -754 755 0
55 -86 -88 -755 0
4 31 40 756 0
40 -52 -756 757 0
-52 -56 92 -757 0
25 -28 -73 758 0
25 -28 -73 -758 0
15 26 37 759 0
37 40 69 -759 0
-8 12 -23 -28 0
-10 -15 94 760 0
-10 -15 94 -760 0
33 34 -50 761 0
-50 54 -761 762 0
54 56 -762 763 0
56 77 -763 764 0
77 -84 -93 -764 0
25 62 77 765 0
25 62 77 -765 0
-6 -43 -68 766 0
-68 79 -766 767 0
79 80 -767 768 0
80 -95 -98 -768 0
57 60 82 -97 0
57 -78 90 -91 0
43 -49 -61 769 0
-61 -82 -769 770 0
-82 84 -770 771 0
84 85 -771 772 0
85 -87 -772 773 0
-87 89 -773 774 0
89 90 -774 775 0
90 -92 -97 -775 0
-35 56 -77 776 0
-35 56 -77 -776 0
7 18 -36 777 0
7 18 -36 -777 0
-20 28 29 778 0
29 48 -778 779 0
48 63 -779 780 0
63 -86 -95 -780 0
34 -70 781 782 0
34 -70 781 -782 0
34 -70 -781 782 0
34 -70 -781 -782 0
-13 18 35 783 0
35 -63 -783 784 0
-63 81 -99 -784 0
19 56 73 785 0
19 56 73 -785 0
-10 16 38 786 0
38 52 -786 787 0
52 -67 -787 788 0
-67 -83 -91 -788 0
67 -71 789 790 0
67 -71 789 -790 0
67 -71 -789 790 0
67 -71 -789 -790 0
-32 -39 791 792 0
-32 -39 791 -792 0
-32 -39 -791 792 0
-32 -39 -791 -792 0
-5 -10 57 793 0
57 71 -793 794 0
71 -82 93 -794 0
1 27 59 795 0
1 27 59 -795 0
40 47 56 796 0
56 58 -796 797 0
58 63 -797 798 0
63 74 -798 799 0
74 -88 -91 -799 0
-3 14 15 800 0
15 22 -800 801 0
22 -32 -801 802 0
-32 -59 -802 803 0
-59 67 76 -803 0
5 -10 21 804 0
21 -38 -804 805 0
-38 43 -805 806 0
43 -63 -94 -806 0
21 25 -54 -86 0
-7 26 -38 807 0
-38 63 -80 -807 0
-9 28 61 -94 0
6 16 30 808 0
30 -36 -808 809 0
-36 39 -809 810 0
39 57 -59 -810 0
15 44 811 812 0
15 44 811 -812 0
15 44 -811 812 0
15 44 -811 -812 0
5 -7 -57 -95 0
77 78 -83 -97 0
19 61 89 813 0
19 61 89 -813 0
-1 12 814 815 0
-1 12 814 -815 0
-1 12 -814 815 0
-1 12 -814 -815 0
-4 -8 21 816 0
21 26 -816 817 0
26 -39 -817 818 0
-39 43 -818 819 0
43 -65 69 -819 0
-61 84 -99 820 0
-61 84 -99 -820 0
4 -14 -25 821 0
-25 -62 -821 822 0
-62 86 -93 -822 0
3 5 23 823 0
23 59 -823 824 0
59 -62 69 -824 0
28 31 -58 825 0
-58 64 89 -825 0
-14 17 -27 78 0
1 2 33 826 0
1 2 33 -826 0
6 21 36 827 0
36 43 -48 -827 0
-60 100 828 829 0
-60 100 828 -829 0
-60 100 -828 829 0
-60 100 -828 -829 0
6 -18 -59 830 0
-59 62 -830 831 0
62 -83 -100 -831 0
-3 -5 14 832 0
14 -20 -832 833 0
-20 -24 -833 834 0
-24 -73 -834 835 0
-73 92 97 -835 0
23 28 -43 836 0
-43 -69 -836 837 0
-69 80 82 -837 0
8 -43 -72 838 0
8 -43 -72 -838 0
53 81 839 840 0
53 81 839 -840 0
53 81 -839 840 0
53 81 -839 -840 0
-20 -30 -53 841 0
-53 60 -841 842 0
60 -66 97 -842 0
2 54 -58 843 0
2 54 -58 -843 0
5 19 20 844 0
20 -55 -844 845 0
-55 86 -845 846 0
86 89 -96 -846 0
27 28 -35 847 0
-35 -40 -46 -847 0
1 -14 21 848 0
21 -22 -848 849 0
-22 -59 -849 850 0
-59 68 -850 851 0
68 -71 -851 852 0
-71 -95 -99 -852 0
-4 -36 -42 853 0
-42 -55 -853 854 0
-55 82 84 -854 0
21 28 -29 855 0
-29 67 -855 856 0
67 -77 93 -856 0
-10 15 -22 857 0
-22 -37 -857 858 0
-37 -41 -858 859 0
-41 -46 -76 -859 0
13 -39 -53 860 0
-53 -57 -860 861 0
-57 -61 -861 862 0
-61 71 -90 -862 0
24 31 -42 863 0
-42 -71 73 -863 0
1 -14 -41 864 0
-41 -44 57 -864 0
-6 53 -58 865 0
-58 65 66 -865 0
10 -20 40 866 0
40 42 -866 867 0
42 55 -867 868 0
55 56 -868 869 0
56 72 -869 870 0
72 76 -82 -870 0
35 48 51 871 0
51 53 -871 872 0
53 -67 -84 -872 0
-24 -47 -53 873 0
-24 -47 -53 -873 0
36 37 -43 874 0
-43 64 -83 -874 0
33 59 -72 875 0
-72 -82 -93 -875 0
-16 24 46 876 0
46 52 95 -876 0
-7 20 -61 877 0
-61 -68 95 -877 0
52 -65 -88 878 0
52 -65 -88 -878 0
-14 -26 50 879 0
50 51 -62 -879 0
24 -29 36 880 0
36 63 -880 881 0
63 -64 -881 882 0
-64 -75 -882 883 0
-75 -90 -93 -883 0
-1 4 -13 884 0
-13 -16 -884 885 0
-16 -52 -885 886 0
-52 -57 -886 887 0
-57 63 -887 888 0
63 64 92 -888 0
-10 14 72 889 0
-10 14 72 -889 0
-61 66 95 890 0
-61 66 95 -890 0
48 -70 79 891 0
79 -80 -83 -891 0
-10 -85 95 892 0
-10 -85 95 -892 0
18 -19 36 893 0
36 37 -893 894 0
37 48 -894 895 0
48 56 -895 896 0
56 -64 -71 -896 0
-32 36 -44 897 0
-44 47 -897 898 0
47 -48 -898 899 0
-48 82 94 -899 0
-5 -48 64 900 0
64 82 -88 -900 0
67 -89 -93 901 0
67 -89 -93 -901 0
29 -42 59 83 0
-25 -34 66 902 0
-25 -34 66 -902 0
-38 -40 46 94 0
2 3 -12 903 0
-12 -35 -903 904 0
-35 -41 76 -904 0
13 23 24 905 0
24 -27 -905 906 0
-27 -37 -906 907 0
-37 52 -63 -907 0
-5 8 -14 908 0
-14 17 -908 909 0
17 72 96 -909 0
-10 26 66 910 0
-10 26 66 -910 0
16 -23 32 911 0
32 -39 -911 912 0
-39 63 72 -912 0
-18 21 27 913 0
27 -34 -913 914 0
-34 -37 -914 915 0
-37 58 -915 916 0
58 -66 -83 -916 0
-3 -19 22 917 0
22 -25 -917 918 0
-25 -55 -918 919 0
-55 92 -96 -919 0
11 -12 -30 920 0
-30 -70 -920 921 0
-70 73 -921 922 0
73 -85 98 -922 0
18 57 69 923 0
69 -91 -100 -923 0
22 49 -77 79 0
-12 67 924 925 0
-12 67 924 -925 0
-12 67 -924 925 0
-12 67 -924 -925 0
-5 20 -57 -86 0
-4 24 -38 926 0
-38 -50 -926 927 0
-50 79 -85 -927 0
-18 -32 38 928 0
38 45 -928 929 0
45 72 -929 930 0
72 -76 -95 -930 0
4 -72 80 931 0
4 -72 80 -931 0
-66 79 932 933 0
-66 79 932 -933 0
-66 79 -932 933 0
-66 79 -932 -933 0
-17 33 48 934 0
48 -54 -934 935 0
-54 -64 71 -935 0
-19 43 79 89 0
-9 -20 -25 936 0
-25 96 -97 -936 0
-3 -58 937 938 0
-3 -58 937 -938 0
-3 -58 -937 938 0
-3 -58 -937 -938 0
-12 -27 939 940 0
-12 -27 939 -940 0
-12 -27 -939 940 0
-12 -27 -939 -940 0
-1 4 -14 941 0
-14 29 -941 942 0
29 47 99 -942 0
-11 -23 -29 943 0
-29 52 -943 944 0
52 57 -944 945 0
57 73 -945 946 0
73 75 -83 -946 0
14 54 59 74 0
6 -8 -28 947 0
6 -8 -28 -947 0
14 -15 27 948 0
27 72 -92 -948 0
-20 23 25 -46 0
3 -8 36 949 0
36 47 -949 950 0
47 -49 -950 951 0
-49 -53 -951 952 0
-53 80 -952 953 0
80 96 98 -953 0
-20 24 -41 54 0
-8 -46 -81 954 0
-8 -46 -81 -954 0
-6 12 -66 955 0
-66 -78 98 -955 0
6 8 61 -97 0
16 29 -49 956 0
-49 -58 -956 957 0
-58 -65 -957 958 0
-65 69 -82 -958 0
-20 -31 -48 959 0
-48 51 -66 -959 0
-9 -41 -91 960 0
-9 -41 -91 -960 0
-42 62 -67 70 0
-6 24 -34 961 0
-34 38 -961 962 0
38 41 -962 963 0
41 -43 -963 964 0
-43 -52 -964 965 0
-52 -78 -965 966 0
-78 -89 100 -966 0
27 32 39 967 0
39 -88 93 -967 0
33 71 968 969 0
33 71 968 -969 0
33 71 -968 969 0
33 71 -968 -969 0
-36 46 64 970 0
64 71 72 -970 0
15 23 26 971 0
26 33 -971 972 0
33 -66 -972 973 0
-66 69 -973 974 0
69 -82 -99 -974 0
-3 -20 -22 -61 0
6 -23 -28 975 0
-28 31 -975 976 0
31 45 -976 977 0
45 -56 -977 978 0
-56 78 97 -978 0
14 17 23 979 0
23 -39 -98 -979 0
-1 -30 -56 980 0
-56 71 -96 -980 0
21 -23 56 67 0
9 30 31 981 0
31 72 -86 -981 0
11 26 38 982 0
38 60 69 -982 0
25 -28 70 983 0
25 -28 70 -983 0
-10 -54 -58 984 0
-10 -54 -58 -984 0
-5 62 93 985 0
-5 62 93 -985 0
-1 -4 8 986 0
8 -44 -986 987 0
-44 66 -987 988 0
66 -89 -93 -988 0
7 31 34 989 0
34 37 -989 990 0
37 -40 -990 991 0
-40 -84 -991 992 0
-84 86 -992 993 0
86 -87 97 -993 0
46 -57 -68 994 0
46 -57 -68 -994 0
1 47 65 -70 0
2 6 18 995 0
18 -35 -995 996 0
-35 -74 -996 997 0
-74 79 -997 998 0
79 83 -998 999 0
83 -95 97 -999 0
-19 -38 55 -80 0
48 58 -67 1000 0
48 58 -67 -1000 0
44 48 -51 -99 0
-15 83 1001 1002 0
-15 83 1001 -1002 0
-15 83 -1001 1002 0
-15 83 -1001 -1002 0
48 -63 74 1003 0
74 80 -1003 1004 0
80 83 -1004 1005 0
83 85 -99 -1005 0
-22 -27 -34 1006 0
-34 -53 -1006 1007 0
-53 -77 -1007 1008 0
-77 -82 -95 -1008 0
59 64 -67 -80 0
48 -50 -53 1009 0
-53 -74 -97 -1009 0
5 29 -39 86 0
33 41 1010 1011 0
33 41 1010 -1011 0
33 41 -1010 1011 0
33 41 -1010 -1011 0
79 80 -95 1012 0
79 80 -95 -1012 0
47 -56 77 93 0
38 -50 54 1013 0
54 56 -1013 1014 0
56 -59 67 -1014 0
-13 48 54 -91 0
15 -39 1015 1016 0
15 -39 1015 -1016 0
15 -39 -1015 1016 0
15 -39 -1015 -1016 0
-17 -27 38 1017 0
38 39 -1017 1018 0
39 -80 -1018 1019 0
-80 -84 -88 -1019 0
3 -8 18 1020 0
18 -39 52 -1020 0
35 69 -74 1021 0
-74 -91 98 -1021 0
8 55 -57 1022 0
-57 -62 -1022 1023 0
-62 66 -1023 1024 0
66 72 -1024 1025 0
72 83 92 -1025 0
9 26 -44 1026 0
-44 -57 -1026 1027 0
-57 61 -1027 1028 0
61 73 -1028 1029 0
73 -76 -1029 1030 0
-76 82 -88 -1030 0
-14 -17 -33 1031 0
-14 -17 -33 -1031 0
-11 -20 -40 -94 0
10 -11 -21 1032 0
-21 -24 -1032 1033 0
-24 27 -1033 1034 0
27 -35 -1034 1035 0
-35 -37 -81 -1035 0
9 31 -54 1036 0
-54 -58 99 -1036 0
-2 -10 -15 1037 0
-15 -47 -1037 1038 0
-47 60 -94 -1038 0
-38 -40 64 92 0
-49 -52 -77 90 0
53 -93 97 1039 0
53 -93 97 -1039 0
-1 -41 66 1040 0
66 89 94 -1040 0
13 47 -61 1041 0
-61 -76 81 -1041 0
-6 -36 -48 65 0
27 65 -71 1042 0
-71 93 94 -1042 0
2 3 -35 1043 0
-35 37 -1043 1044 0
37 -57 -1044 1045 0
-57 61 -1045 1046 0
61 -76 -1046 1047 0
-76 90 -1047 1048 0
90 93 95 -1048 0
-59 79 99 1049 0
-59 79 99 -1049 0
-33 53 -67 89 0
-44 76 87 1050 0
-44 76 87 -1050 0
8 -60 -92 95 0
23 -32 35 1051 0
35 55 56 -1051 0
-29 65 84 1052 0
84 86 88 -1052 0
82 87 1053 1054 0
82 87 1053 -1054 0
82 87 -1053 1054 0
82 87 -1053 -1054 0
11 -20 -32 1055 0
-32 -60 -1055 1056 0
-60 -73 -83 -1056 0
43 54 1057 1058 0
43 54 1057 -1058 0
43 54 -1057 1058 0
43 54 -1057 -1058 0
2 12 -42 1059 0
-42 48 -84 -1059 0
38 57 58 -93 0
-14 -34 45 1060 0
45 -50 -1060 1061 0
-50 -69 -1061 1062 0
-69 71 -1062 1063 0
71 76 -82 -1063 0
16 79 -81 1064 0
16 79 -81 -1064 0
-8 -18 61 1065 0
61 63 -1065 1066 0
63 -78 80 -1066 0
-4 -19 -86 1067 0
-4 -19 -86 -1067 0
37 -81 1068 1069 0
37 -81 1068 -1069 0
37 -81 -1068 1069 0
37 -81 -1068 -1069 0
-63 -76 98 1070 0
-63 -76 98 -1070 0
-20 22 -23 1071 0
-20 22 -23 -1071 0
1 39 -40 1072 0
-40 -54 -1072 1073 0
-54 64 -1073 1074 0
64 -95 -97 -1074 0
13 40 49 1075 0
49 -61 -65 -1075 0
34 -37 -82 1076 0
34 -37 -82 -1076 0
24 35 46 1077 0
46 49 78 -1077 0
3 -17 21 1078 0
21 -32 -37 -1078 0
-2 -19 -24 1079 0
-2 -19 -24 -1079 0
42 43 -59 1080 0
-59 63 -1080 1081 0
63 65 -1081 1082 0
65 86 -93 -1082 0
-4 -7 34 1083 0
34 71 86 -1083 0
-6 -15 -52 1084 0
-52 -77 -1084 1085 0
-77 88 89 -1085 0
66 69 91 1086 0
66 69 91 -1086 0
-1 -6 66 1087 0
66 -87 -1087 1088 0
-87 99 -100 -1088 0
52 -58 -70 1089 0
-70 -91 -1089 1090 0
-91 93 -1090 1091 0
93 94 -1091 1092 0
94 -96 -1092 1093 0
-96 98 99 -1093 0
-44 65 -86 1094 0
-44 65 -86 -1094 0
-4 16 27 -45 0
-29 37 38 1095 0
38 57 -1095 1096 0
57 72 -95 -1096 0
-8 43 -79 1097 0
-8 43 -79 -1097 0
-22 27 44 1098 0
44 -72 90 -1098 0
28 65 82 1099 0
28 65 82 -1099 0
-19 25 47 1100 0
47 61 -1100 1101 0
61 -76 -1101 1102 0
-76 -92 -100 -1102 0
76 -80 1103 1104 0
76 -80 1103 -1104 0
76 -80 -1103 1104 0
76 -80 -1103 -1104 0
2 -41 -48 1105 0
2 -41 -48 -1105 0
-14 -19 66 1106 0
66 80 -91 -1106 0
10 36 68 1107 0
10 36 68 -1107 0
49 56 65 1108 0
65 67 -1108 1109 0
67 72 -1109 1110 0
72 83 -1110 1111 0
83 -97 -100 -1111 0
-3 -12 23 1112 0
23 24 -1112 1113 0
24 31 -1113 1114 0
31 -41 -1114 1115 0
-41 -68 -1115 1116 0
-68 76 85 -1116 0
14 -19 30 1117 0
30 -47 -1117 1118 0
-47 52 -72 -1118 0
30 34 -63 -95 0
-3 -16 35 1119 0
35 -47 -1119 1120 0
-47 72 -89 -1120 0
-18 37 70 1121 0
-18 37 70 -1121 0
15 25 39 1122 0
39 -45 -1122 1123 0
-45 48 -1123 1124 0
48 66 -68 -1124 0
-4 24 53 1125 0
-4 24 53 -1125 0
-6 14 -16 -66 0
86 87 -92 1126 0
86 87 -92 -1126 0
28 70 98 1127 0
28 70 98 -1127 0
-10 21 1128 1129 0
-10 21 1128 -1129 0
-10 21 -1128 1129 0
-10 21 -1128 -1129 0
-8 -13 -17 1130 0
-17 30 -1130 1131 0
30 35 -1131 1132 0
35 -48 -1132 1133 0
-48 52 -1133 1134 0
52 -74 78 -1134 0
-2 -70 93 1135 0
-2 -70 93 -1135 0
13 -23 -34 1136 0
-34 -71 95 -1136 0
12 14 32 1137 0
32 68 -1137 1138 0
68 -71 78 -1138 0
37 40 -67 1139 0
-67 73 98 -1139 0
-23 26 -36 87 0
10 11 42 1140 0
10 11 42 -1140 0
9 15 30 1141 0
30 45 -1141 1142 0
45 52 -57 -1142 0
-9 -69 1143 1144 0
-9 -69 1143 -1144 0
-9 -69 -1143 1144 0
-9 -69 -1143 -1144 0
1 6 15 1145 0
15 -27 -1145 1146 0
-27 -68 -1146 1147 0
-68 71 -92 -1147 0
-12 -14 23 1148 0
23 -29 -1148 1149 0
-29 -33 -82 -1149 0
32 37 -52 1150 0
-52 -78 -1150 1151 0
-78 89 91 -1151 0
17 -52 -81 1152 0
17 -52 -81 -1152 0
6 62 90 1153 0
6 62 90 -1153 0
-29 -39 -62 1154 0
-62 69 -75 -1154 0
-5 11 63 -67 0
14 28 29 1155 0
29 -64 -1155 1156 0
-64 95 98 -1156 0
-4 -8 36 1157 0
36 37 -1157 1158 0
37 -44 -1158 1159 0
-44 -49 -55 -1159 0
10 -23 30 1160 0
30 -31 -1160 1161 0
-31 -68 -1161 1162 0
-68 77 -80 -1162 0
2 -13 -45 1163 0
-45 -51 -1163 1164 0
-51 -64 -1164 1165 0
-64 91 93 -1165 0
30 37 -38 1166 0
-38 76 -86 -1166 0
-19 24 -31 1167 0
-31 -46 -1167 1168 0
-46 -50 -1168 1169 0
-50 -55 -85 -1169 0
22 -48 -62 1170 0
-62 -66 -1170 1171 0
-66 -70 -1171 1172 0
-70 80 -99 -1172 0
33 40 -51 1173 0
-51 -80 82 -1173 0
10 -23 -50 1174 0
-50 -53 66 -1174 0
-15 62 -67 1175 0
-67 74 75 -1175 0
19 -29 49 1176 0
49 51 -1176 1177 0
51 64 -1177 1178 0
64 65 -1178 1179 0
65 81 -1179 1180 0
81 85 -91 -1180 0
44 57 60 1181 0
60 62 -1181 1182 0
62 -76 -93 -1182 0
-33 -56 -62 1183 0
-33 -56 -62 -1183 0
-2 45 46 1184 0
46 -52 -1184 1185 0
-52 73 -92 -1185 0
4 42 68 1186 0
68 -81 -91 -1186 0
4 -25 33 1187 0
33 55 61 -1187 0
-16 29 -70 -77 0
61 -74 -97 1188 0
61 -74 -97 -1188 0
-2 -23 -35 1189 0
-35 59 -1189 1190 0
59 60 -71 -1190 0
1 33 -38 1191 0
-38 45 -1191 1192 0
45 72 -1192 1193 0
72 -73 -1193 1194 0
-73 -84 -99 -1194 0
-10 13 -22 1195 0
-22 -25 -1195 1196 0
-25 -61 -1196 1197 0
-61 -66 -1197 1198 0
-66 72 73 -1198 0
4 -19 23 81 0
-70 75 1199 1200 0
-70 75 1199 -1200 0
-70 75 -1199 1200 0
-70 75 -1199 -1200 0
4 57 -79 1201 0
-79 88 -1201 1202 0
88 -89 -92 -1202 0
-19 -94 1203 1204 0
-19 -94 1203 -1204 0
-19 -94 -1203 1204 0
-19 -94 -1203 -1204 0
3 27 -28 1205 0
-28 45 -1205 1206 0
45 46 -1206 1207 0
46 57 -1207 1208 0
57 65 -1208 1209 0
65 -73 -80 -1209 0
-41 45 -53 1210 0
-53 56 -1210 1211 0
56 -57 91 -1211 0
-2 -14 -57 1212 0
-57 73 -1212 1213 0
73 91 -97 -1213 0
76 -98 1214 1215 0
76 -98 1214 -1215 0
76 -98 -1214 1215 0
76 -98 -1214 -1215 0
38 -51 68 92 0
3 -34 -43 75 0
-47 -49 55 1216 0
-47 -49 55 -1216 0
11 12 -21 1217 0
-21 -44 -1217 1218 0
-44 -50 85 -1218 0
5 22 32 1219 0
32 33 -1219 1220 0
33 -36 -1220 1221 0
-36 -46 -1221 1222 0
-46 61 -72 -1222 0
-14 17 -23 1223 0
-23 26 81 -1223 0
-19 35 75 1224 0
-19 35 75 -1224 0
25 -32 41 1225 0
41 -48 -1225 1226 0
-48 72 81 -1226 0
1 -5 -27 1227 0
-27 30 -1227 1228 0
30 36 -1228 1229 0
36 -43 -1229 1230 0
-43 -46 -1230 1231 0
-46 67 -1231 1232 0
67 -75 -92 -1232 0
7 -12 -28 1233 0
-28 31 -1233 1234 0
31 -34 -64 -1234 0
-9 20 -21 1235 0
-21 -39 -1235 1236 0
-39 -79 -1236 1237 0
-79 82 -94 -1237 0
27 66 78 -100 0
31 58 -86 88 0
-21 76 1238 1239 0
-21 76 1238 -1239 0
-21 76 -1238 1239 0
-21 76 -1238 -1239 0
-14 29 -66 -95 0
-4 -13 33 1240 0
33 -47 -1240 1241 0
-47 -59 -1241 1242 0
-59 88 -94 -1242 0
-27 -41 47 1243 0
47 54 -1243 1244 0
54 81 -85 -1244 0
13 -81 89 1245 0
13 -81 89 -1245 0
-75 88 1246 1247 0
-75 88 1246 -1247 0
-75 88 -1246 1247 0
-75 88 -1246 -1247 0
-26 42 57 1248 0
57 -63 -1248 1249 0
-63 -73 80 -1249 0
5 -6 -28 1250 0
-28 52 -1250 1251 0
52 88 98 -1251 0
-18 -29 -34 1252 0
-18 -29 -34 -1252 0
-12 -67 1253 1254 0
-12 -67 1253 -1254 0
-12 -67 -1253 1254 0
-12 -67 -1253 -1254 0
8 -21 -36 1255 0
8 -21 -36 -1255 0
-10 13 -23 1256 0
-23 38 56 -1256 0
-20 -32 -38 1257 0
-38 61 -1257 1258 0
61 66 -1258 1259 0
66 82 -1259 1260 0
82 84 -92 -1260 0
23 63 68 83 0
-1 15 -17 -37 0
23 -24 36 81 0
5 7 -29 1261 0
-29 32 -1261 1262 0
32 34 -55 -1262 0
12 -17 45 1263 0
45 56 -1263 1264 0
56 -58 -1264 1265 0
-58 -62 89 -1265 0
-29 33 -50 63 0
7 -17 -55 -90 0
-6 -15 21 1266 0
21 -75 -87 -1266 0
15 17 70 1267 0
15 17 70 -1267 0
25 38 -58 1268 0
-58 -67 -1268 1269 0
-67 -74 -1269 1270 0
-74 78 -91 -1270 0
-29 -40 -57 1271 0
-57 60 -75 -1271 0
-18 -50 -100 1272 0
-18 -50 -100 -1272 0
9 -51 71 1273 0
71 -76 79 -1273 0
2 -15 33 1274 0
33 -43 -1274 1275 0
-43 47 -1275 1276 0
47 50 -1276 1277 0
50 -52 -1277 1278 0
-52 -61 -1278 1279 0
-61 -87 -98 -1279 0
36 41 48 -97 0
42 80 1280 1281 0
42 80 1280 -1281 0
42 80 -1280 1281 0
42 80 -1280 -1281 0
-8 -45 55 1282 0
55 73 -1282 1283 0
73 80 81 -1283 0
24 32 35 1284 0
35 42 -1284 1285 0
42 -75 -1285 1286 0
-75 78 -91 -1286 0
6 -12 -29 1287 0
-29 -31 -70 -1287 0
15 -32 -37 1288 0
-37 40 -1288 1289 0
40 54 -1289 1290 0
54 -65 87 -1290 0
-5 23 26 1291 0
26 32 -48 -1291 0
-10 -39 -65 80 0
30 -32 65 76 0
18 39 40 1292 0
40 81 -95 -1292 0
20 35 47 1293 0
47 69 78 -1293 0
34 -37 79 1294 0
34 -37 79 -1294 0
2 -19 -63 -67 0
-2 -14 71 1295 0
-2 -14 71 -1295 0
6 -10 -13 1296 0
-13 17 -1296 1297 0
17 -53 -1297 1298 0
-53 75 -98 -1298 0
16 40 43 1299 0
43 46 -1299 1300 0
46 -49 -1300 1301 0
-49 -93 -1301 1302 0
-93 95 -96 -1302 0
55 -66 -77 1303 0
55 -66 -77 -1303 0
-4 6 10 1304 0
10 56 -1304 1305 0
56 74 -79 -1305 0
11 15 27 1306 0
27 -44 -1306 1307 0
-44 -83 -1307 1308 0
-83 88 92 -1308 0
-28 -47 64 -89 0
-8 57 67 -76 0
53 57 -60 1309 0
53 57 -60 -1309 0
-8 -24 92 1310 0
-8 -24 92 -1310 0
-4 57 -72 1311 0
-72 83 -1311 1312 0
83 89 -1312 1313 0
89 92 94 -1313 0
-31 -36 -43 1314 0
-43 -62 -1314 1315 0
-62 -86 -91 -1315 0
-6 68 73 1316 0
73 -76 -89 -1316 0
57 -59 -62 -83 0
14 38 -48 95 0
-4 42 50 1317 0
-4 42 50 -1317 0
2 88 89 1318 0
2 88 89 -1318 0
56 -65 86 1319 0
56 -65 86 -1319 0
47 -59 63 1320 0
63 65 -1320 1321 0
65 -68 76 -1321 0
-22 57 63 -100 0
24 -48 1322 1323 0
24 -48 1322 -1323 0
24 -48 -1322 1323 0
24 -48 -1322 -1323 0
-26 -36 47 1324 0
47 48 -1324 1325 0
48 -89 -1325 1326 0
-89 -93 -97 -1326 0
7 12 -17 1327 0
-17 27 -1327 1328 0
27 -48 61 -1328 0
1 44 78 1329 0
78 -83 -100 -1329 0
17 64 -66 1330 0
-66 -71 -1330 1331 0
-71 75 -1331 1332 0
75 81 92 -1332 0
18 35 -53 1333 0
-53 -66 -1333 1334 0
-66 70 -1334 1335 0
70 82 -1335 1336 0
82 -85 -1336 1337 0
-85 91 -97 -1337 0
-3 -23 -26 -42 0
-20 -29 -49 1338 0
-20 -29 -49 -1338 0
8 19 -20 1339 0
-20 -30 -1339 1340 0
-30 -33 -1340 1341 0
-33 36 -1341 1342 0
36 -44 -1342 1343 0
-44 -46 -90 -1343 0
-3 18 40 1344 0
40 -63 -67 -1344 0
1 -11 -19 1345 0
-19 -24 -1345 1346 0
-24 -56 69 -1346 0
-47 -49 73 1347 0
-47 -49 73 -1347 0
-2 6 -58 1348 0
-58 -61 -1348 1349 0
-61 -86 99 -1349 0
3 62 1350 1351 0
3 62 1350 -1351 0
3 62 -1350 1351 0
3 62 -1350 -1351 0
-10 -50 75 98 0
22 56 -70 1352 0
-70 -85 90 -1352 0
2 3 -15 1353 0
-15 -45 -1353 1354 0
-45 -57 74 -1354 0
2 4 36 1355 0
36 74 -80 -1355 0
8 11 12 1356 0
12 -44 -1356 1357 0
-44 46 -1357 1358 0
46 -66 -1358 1359 0
-66 70 -1359 1360 0
70 -85 99 -1360 0
-68 88 1361 1362 0
-68 88 1361 -1362 0
-68 88 -1361 1362 0
-68 88 -1361 -1362 0
-42 62 -76 98 0
-1 4 -53 1363 0
-53 85 96 -1363 0
17 -69 1364 1365 0
17 -69 1364 -1365 0
17 -69 -1364 1365 0
17 -69 -1364 -1365 0
32 -41 44 1366 0
44 64 65 -1366 0
-38 74 93 1367 0
93 95 97 -1367 0
91 96 1368 1369 0
91 96 1368 -1369 0
91 96 -1368 1369 0
91 96 -1368 -1369 0
20 -29 -41 1370 0
-41 -69 -1370 1371 0
-69 -82 -92 -1371 0
52 63 1372 1373 0
52 63 1372 -1373 0
52 63 -1372 1373 0
52 63 -1372 -1373 0
-2 11 21 1374 0
21 -51 -1374 1375 0
-51 57 -93 -1375 0
47 66 67 1376 0
47 66 67 -1376 0
-23 -43 54 1377 0
54 -59 -1377 1378 0
-59 -78 -1378 1379 0
-78 80 -1379 1380 0
80 85 -91 -1380 0
25 88 -90 1381 0
25 88 -90 -1381 0
-17 -27 70 1382 0
70 72 -1382 1383 0
72 -87 89 -1383 0
-13 -28 -95 1384 0
-13 -28 -95 -1384 0
7 46 -90 1385 0
7 46 -90 -1385 0
-72 -85 1386 1387 0
-72 -85 1386 -1387 0
-72 -85 -1386 1387 0
-72 -85 -1386 -1387 0
-4 -6 -29 1388 0
-29 31 -32 -1388 0
10 48 -49 1389 0
-49 -63 73 -1389 0
22 49 58 1390 0
58 -70 -74 -1390 0
43 -46 -91 1391 0
43 -46 -91 -1391 0
33 44 55 1392 0
55 58 87 -1392 0
12 -26 30 1393 0
30 -41 -46 -1393 0
-2 -11 -28 -33 0
51 52 -68 1394 0
-68 72 -1394 1395 0
72 74 95 -1395 0
-13 -16 43 1396 0
43 80 95 -1396 0
-15 -24 -61 1397 0
-61 -86 -1397 1398 0
-86 97 98 -1398 0
8 -9 75 1399 0
75 78 100 -1399 0
2 3 -5 1400 0
-5 7 -1400 1401 0
7 8 -1401 1402 0
8 -10 -1402 1403 0
-10 -15 -1403 1404 0
-15 75 -96 -1404 0
61 -67 -79 -100 0
-53 74 -95 1405 0
-53 74 -95 -1405 0
-4 -13 25 1406 0
25 36 -54 -1406 0
-38 46 47 1407 0
47 66 81 -1407 0
-17 52 -88 1408 0
-17 52 -88 -1408 0
-31 36 53 1409 0
53 -81 99 -1409 0
-1 -9 37 1410 0
37 74 91 -1410 0
-28 34 56 1411 0
56 70 -85 -1411 0
85 -89 1412 1413 0
85 -89 1412 -1413 0
85 -89 -1412 1413 0
85 -89 -1412 -1413 0
11 -50 -57 1414 0
11 -50 -57 -1414 0
-23 -28 75 1415 0
75 89 -100 -1415 0
-6 -9 19 1416 0
19 45 77 -1416 0
58 65 74 1417 0
74 76 -1417 1418 0
76 81 92 -1418 0
-12 -21 32 1419 0
32 33 -1419 1420 0
33 40 -1420 1421 0
40 -50 -1421 1422 0
-50 -77 -1422 1423 0
-77 85 94 -1423 0
-4 23 -28 1424 0
-28 39 -1424 1425 0
39 -56 -1425 1426 0
-56 61 -81 -1426 0
39 43 -72 1427 0
39 43 -72 -1427 0
-12 -25 44 1428 0
44 -56 -1428 1429 0
-56 81 -98 -1429 0
-27 46 79 1430 0
-27 46 79 -1430 0
24 34 48 1431 0
48 -54 -1431 1432 0
-54 57 -1432 1433 0
57 75 -77 -1433 0
-13 33 62 1434 0
-13 33 62 -1434 0
-1 -15 23 1435 0
23 -25 -75 -1435 0
7 95 96 1436 0
7 95 96 -1436 0
37 79 1437 1438 0
37 79 1437 -1438 0
37 79 -1437 1438 0
37 79 -1437 -1438 0
-19 30 1439 1440 0
-19 30 1439 -1440 0
-19 30 -1439 1440 0
-19 30 -1439 -1440 0
